
#(C) 2018 by FIZ Karlsruhe - Leibniz Institute for Information Infrastructure.  All rights reserved.
data_67579-ICSD
_database_code_ICSD 67579
_audit_creation_date 1993-08-22
_audit_update_record 2007-08-01
_chemical_name_systematic

;
Cobalt aluminium phosphate (0.89/0.11/1) - triethylamine - water (1/0.03/0.37)
;
_chemical_formula_structural
'((Al0.888 Co0.112) (P O4)) (N (C2 H5)3)0.0333 (H2 O)0.366'
_chemical_formula_sum 'C0.1998 H1.2315 Al0.888 Co0.112 N0.0333 O4.366 P1'
_chemical_name_structure_type Zeolite-AlPO-5-frame
_exptl_crystal_density_diffrn 1.96
_publ_section_title
'Structure and chemistry of cobalt in Co A P O-5 molecular sieve'
loop_
_citation_id
_citation_journal_full
_citation_year
_citation_journal_volume
_citation_page_first
_citation_page_last
_citation_journal_id_ASTM
primary 'Journal of the Chemical Society, Faraday Transactions' 1992 88 2949
2954 JCFTEV
loop_
_publ_author_name
'Chao, K.-J.'
'Sheu, S.-P.'
'Sheu, H.-S.'
_cell_length_a 13.753(3)
_cell_length_b 13.753(3)
_cell_length_c 8.418(2)
_cell_angle_alpha 90.
_cell_angle_beta 90.
_cell_angle_gamma 120.
_cell_volume 1378.91
_cell_formula_units_Z 12
_symmetry_space_group_name_H-M 'P 6 c c'
_symmetry_Int_Tables_number 184
_refine_ls_R_factor_all 0.067
loop_
_symmetry_equiv_pos_site_id
_symmetry_equiv_pos_as_xyz
1 'x, x-y, z+1/2'
2 '-x+y, y, z+1/2'
3 '-y, -x, z+1/2'
4 '-x, -x+y, z+1/2'
5 'x-y, -y, z+1/2'
6 'y, x, z+1/2'
7 'x-y, x, z'
8 'y, -x+y, z'
9 '-x, -y, z'
10 '-x+y, -x, z'
11 '-y, x-y, z'
12 'x, y, z'
loop_
_atom_type_symbol
_atom_type_oxidation_number
P5+ 5
Al3+ 3
Co3+ 3
O2- -2
N0+ 0
C0+ 0
O2- -2
H0+ 0
H1+ 1
loop_
_atom_site_label
_atom_site_type_symbol
_atom_site_symmetry_multiplicity
_atom_site_Wyckoff_symbol
_atom_site_fract_x
_atom_site_fract_y
_atom_site_fract_z
_atom_site_B_iso_or_equiv
_atom_site_occupancy
_atom_site_attached_hydrogens
P1 P5+ 12 d 0.4534(5) 0.3273(6) 0.078 . 1. 0
Al1 Al3+ 12 d 0.4556(8) 0.1181(7) -.0471(8) . 0.888 0
Co1 Co3+ 12 d 0.4556(8) 0.1181(7) -.0471(8) . 0.112 0
O1 O2- 12 d 0.420(1) 0.207(2) 0.033(4) . 1. 0
O2 O2- 12 d 0.484(3) 0.359(3) 0.293(5) 0.060(11) 0.5 0
O3 O2- 12 d 0.427(3) 0.318(3) 0.269(9) . 0.5 0
O4 O2- 12 d 0.360(1) 0.368(2) 0.036(3) . 1. 0
O5 O2- 12 d 0.579(2) 0.423(3) 0.063(3) . 1. 0
N1 N0+ 2 a 0 0 0.417 0.05 0.2 0
C1 C0+ 12 d 0.122 0.079 0.476 0.05 0.1 0
C2 C0+ 12 d 0.126 0.177 0.571 0.05 0.1 0
O6 O2- 12 d 0.151 -.02 0.251 0.05 0.25(2) 0
O7 O2- 12 d 0.054 -.003 0.26 0.05 0.116(1) 0
loop_
_atom_site_aniso_label
_atom_site_aniso_type_symbol
_atom_site_aniso_U_11
_atom_site_aniso_U_22
_atom_site_aniso_U_33
_atom_site_aniso_U_12
_atom_site_aniso_U_13
_atom_site_aniso_U_23
P1 P5+ 0.028(4) 0.027(4) 0.065(5) 0.016(3) 0.019(4) 0.011(5)
Al1 Al3+ 0.068(7) 0.037(5) 0.052(4) 0.036(5) 0.010(5) 0.010(5)
Co1 Co3+ 0.068(7) 0.037(5) 0.052(4) 0.036(5) 0.010(5) 0.001(5)
O1 O2- 0.084(11) 0.025(12) 0.140(13) 0.010(14) 0.006(21) -.024(13)
O3 O2- 0.033(16) 0.105(30) 0.093(23) 0.007(19) 0.012(14) 0.050(45)
O4 O2- 0.036(9) 0.074(13) 0.087(11) 0.034(7) -.018(12) -.028(12)
O5 O2- 0.05 0.092(16) 0.176(24) 0.042(9) 0.024(22) -.016(24)
#End of TTdata_67579-ICSD