
#(C) 2017 by FIZ Karlsruhe - Leibniz Institute for Information Infrastructure.  All rights reserved.
data_110545-ICSD
_database_code_ICSD 110545
_audit_creation_date 2008-08-01
_chemical_name_systematic
'Bis(dimethylammonium) dodecachlorodicpro(I)tetrazincate'
_chemical_formula_structural '((C H3)2 N H2)2 (Cu2 Zn4 Cl12)'
_chemical_formula_sum 'C4 H16 Cl12 Cu2 N2 Zn4'
_exptl_crystal_density_diffrn 2.44
_publ_section_title
'Halogenzeotype: eine neue Generation von Zeolith-artigen Materialien'
loop_
_citation_id
_citation_journal_full
_citation_year
_citation_journal_volume
_citation_page_first
_citation_page_last
_citation_journal_id_ASTM
primary 'Angewandte Chemie (Edition international)' 1997 36 2072 2075 ACIEAY
loop_
_publ_author_name
'Martin, J.D.'
'Greenwood, K.B.'
_cell_length_a 9.5677(16)
_cell_length_b 9.4554(12)
_cell_length_c 13.6435(16)
_cell_angle_alpha 90
_cell_angle_beta 90
_cell_angle_gamma 90
_cell_volume 1234.28
_cell_formula_units_Z 2
_symmetry_space_group_name_H-M 'I 21 21 21'
_symmetry_Int_Tables_number 24
_refine_ls_R_factor_all 0.0343
loop_
_symmetry_equiv_pos_site_id
_symmetry_equiv_pos_as_xyz
1 'x+1/2, -y+1/2, -z'
2 '-x, y+1/2, -z+1/2'
3 '-x+1/2, -y, z+1/2'
4 'x, y, z'
5 'x, -y, -z+1/2'
6 '-x+1/2, y, -z'
7 '-x, -y+1/2, z'
8 'x+1/2, y+1/2, z+1/2'
loop_
_atom_type_symbol
_atom_type_oxidation_number
Cu1+ 1
Zn2+ 2
Cl1- -1
N3- -3
C4+ 4
H1- -1
H1+ 1
loop_
_atom_site_label
_atom_site_type_symbol
_atom_site_symmetry_multiplicity
_atom_site_Wyckoff_symbol
_atom_site_fract_x
_atom_site_fract_y
_atom_site_fract_z
_atom_site_B_iso_or_equiv
_atom_site_occupancy
_atom_site_attached_hydrogens
Cu1 Cu1+ 4 c 0.5 0.25 0.19572(11) . 1. 0
Zn1 Zn2+ 8 d 0.58466(12) -0.08185(11) 0.06948(7) . 1. 0
Cl1 Cl1- 8 d 0.40379(24) 0.07264(24) 0.10508(16) . 1. 0
Cl2 Cl1- 4 b 0.75 0.0625(3) 0 . 1. 0
Cl3 Cl1- 4 c 0.5 -0.25 -0.03629(21) . 1. 0
Cl4 Cl1- 8 d 0.68169(24) 0.18327(24) 0.29420(16) . 1. 0
N1 N3- 4 c 0 0.75 0.3469(22) . 1. 0
C1 C4+ 8 d 0.054(3) 0.9240(23) 0.2936(23) . 1. 0
#End of TTdata_110545-ICSD