
#(C) 2018 by FIZ Karlsruhe - Leibniz Institute for Information Infrastructure.  All rights reserved.
data_9988-ICSD
_database_code_ICSD 9988
_audit_creation_date 1980-01-01
_audit_update_record 2007-08-01
_chemical_name_systematic
'Tricalcium magnesium bis(borate) carbonate 0.13-hydrate'
_chemical_formula_structural 'Ca3 Mg (B O3)2 (C O3) (H2 O)0.125'
_chemical_formula_sum 'C1 H0.25 B2 Ca3 Mg1 O9.125'
_chemical_name_mineral Sakhaite
_exptl_crystal_density_diffrn 2.72
_publ_section_title
'Crystal structure of sakhaite, Ca3 Mg (B O3)2 (C O3) (H2 O)x'
loop_
_citation_id
_citation_journal_full
_citation_year
_citation_journal_volume
_citation_page_first
_citation_page_last
_citation_journal_id_ASTM
primary 'Doklady Akademii Nauk SSSR' 1974 218 576 579 DANKAS
loop_
_publ_author_name
'Chichagov, A.V.'
'Symonov, M.A.'
'Belov, N.V.'
_cell_length_a 14.690(3)
_cell_length_b 14.690(3)
_cell_length_c 14.690(3)
_cell_angle_alpha 90.
_cell_angle_beta 90.
_cell_angle_gamma 90.
_cell_volume 3170.04
_cell_formula_units_Z 16
_symmetry_space_group_name_H-M 'F 41 3 2'
_symmetry_Int_Tables_number 210
_refine_ls_R_factor_all 0.069
loop_
_symmetry_equiv_pos_site_id
_symmetry_equiv_pos_as_xyz
1 'z+3/4, y+3/4, -x+1/4'
2 'y+3/4, x+3/4, -z+1/4'
3 'x+3/4, z+3/4, -y+1/4'
4 '-y, -z, x'
5 '-z, -x, y'
6 '-x, -y, z'
7 '-z+1/4, y+3/4, x+3/4'
8 '-y+1/4, x+3/4, z+3/4'
9 '-x+1/4, z+3/4, y+3/4'
10 'y, -z, -x'
11 'z, -x, -y'
12 'x, -y, -z'
13 'z+3/4, -y+1/4, x+3/4'
14 'y+3/4, -x+1/4, z+3/4'
15 'x+3/4, -z+1/4, y+3/4'
16 '-y, z, -x'
17 '-z, x, -y'
18 '-x, y, -z'
19 '-z+1/4, -y+1/4, -x+1/4'
20 '-y+1/4, -x+1/4, -z+1/4'
21 '-x+1/4, -z+1/4, -y+1/4'
22 'y, z, x'
23 'z, x, y'
24 'x, y, z'
25 'z+3/4, y+1/4, -x+3/4'
26 'y+3/4, x+1/4, -z+3/4'
27 'x+3/4, z+1/4, -y+3/4'
28 '-y, -z+1/2, x+1/2'
29 '-z, -x+1/2, y+1/2'
30 '-x, -y+1/2, z+1/2'
31 '-z+1/4, y+1/4, x+1/4'
32 '-y+1/4, x+1/4, z+1/4'
33 '-x+1/4, z+1/4, y+1/4'
34 'y, -z+1/2, -x+1/2'
35 'z, -x+1/2, -y+1/2'
36 'x, -y+1/2, -z+1/2'
37 'z+3/4, -y+3/4, x+1/4'
38 'y+3/4, -x+3/4, z+1/4'
39 'x+3/4, -z+3/4, y+1/4'
40 '-y, z+1/2, -x+1/2'
41 '-z, x+1/2, -y+1/2'
42 '-x, y+1/2, -z+1/2'
43 '-z+1/4, -y+3/4, -x+3/4'
44 '-y+1/4, -x+3/4, -z+3/4'
45 '-x+1/4, -z+3/4, -y+3/4'
46 'y, z+1/2, x+1/2'
47 'z, x+1/2, y+1/2'
48 'x, y+1/2, z+1/2'
49 'z+1/4, y+3/4, -x+3/4'
50 'y+1/4, x+3/4, -z+3/4'
51 'x+1/4, z+3/4, -y+3/4'
52 '-y+1/2, -z, x+1/2'
53 '-z+1/2, -x, y+1/2'
54 '-x+1/2, -y, z+1/2'
55 '-z+3/4, y+3/4, x+1/4'
56 '-y+3/4, x+3/4, z+1/4'
57 '-x+3/4, z+3/4, y+1/4'
58 'y+1/2, -z, -x+1/2'
59 'z+1/2, -x, -y+1/2'
60 'x+1/2, -y, -z+1/2'
61 'z+1/4, -y+1/4, x+1/4'
62 'y+1/4, -x+1/4, z+1/4'
63 'x+1/4, -z+1/4, y+1/4'
64 '-y+1/2, z, -x+1/2'
65 '-z+1/2, x, -y+1/2'
66 '-x+1/2, y, -z+1/2'
67 '-z+3/4, -y+1/4, -x+3/4'
68 '-y+3/4, -x+1/4, -z+3/4'
69 '-x+3/4, -z+1/4, -y+3/4'
70 'y+1/2, z, x+1/2'
71 'z+1/2, x, y+1/2'
72 'x+1/2, y, z+1/2'
73 'z+1/4, y+1/4, -x+1/4'
74 'y+1/4, x+1/4, -z+1/4'
75 'x+1/4, z+1/4, -y+1/4'
76 '-y+1/2, -z+1/2, x'
77 '-z+1/2, -x+1/2, y'
78 '-x+1/2, -y+1/2, z'
79 '-z+3/4, y+1/4, x+3/4'
80 '-y+3/4, x+1/4, z+3/4'
81 '-x+3/4, z+1/4, y+3/4'
82 'y+1/2, -z+1/2, -x'
83 'z+1/2, -x+1/2, -y'
84 'x+1/2, -y+1/2, -z'
85 'z+1/4, -y+3/4, x+3/4'
86 'y+1/4, -x+3/4, z+3/4'
87 'x+1/4, -z+3/4, y+3/4'
88 '-y+1/2, z+1/2, -x'
89 '-z+1/2, x+1/2, -y'
90 '-x+1/2, y+1/2, -z'
91 '-z+3/4, -y+3/4, -x+1/4'
92 '-y+3/4, -x+3/4, -z+1/4'
93 '-x+3/4, -z+3/4, -y+1/4'
94 'y+1/2, z+1/2, x'
95 'z+1/2, x+1/2, y'
96 'x+1/2, y+1/2, z'
loop_
_atom_type_symbol
_atom_type_oxidation_number
Ca2+ 2
Mg2+ 2
B3+ 3
C4+ 4
O2- -2
H1+ 1
loop_
_atom_site_label
_atom_site_type_symbol
_atom_site_symmetry_multiplicity
_atom_site_Wyckoff_symbol
_atom_site_fract_x
_atom_site_fract_y
_atom_site_fract_z
_atom_site_B_iso_or_equiv
_atom_site_occupancy
_atom_site_attached_hydrogens
Ca1 Ca2+ 48 f 0.239 0 0 0.94 1. 0
Mg1 Mg2+ 16 c 0.125 0.125 0.125 0.9 1. 0
B1 B3+ 32 e 0.341 0.341 0.341 0.29 1. 0
C1 C4+ 16 d 0.125 0.125 0.625 1.55 1. 0
O1 O2- 48 g 0.186 0.064 0.625 3.38 1. 0
O2 O2- 96 h 0.264 0.124 0.116 0.98 1. 0
O3 O2- 8 a 0.25 0.25 0.25 2.28 0.25 0
#End of TTdata_9988-ICSD