
#(C) 2018 by FIZ Karlsruhe - Leibniz Institute for Information Infrastructure.  All rights reserved.
data_238324-ICSD
_database_code_ICSD 238324
_audit_creation_date 2015-08-01
_chemical_name_systematic

;
Gadolinium tetracopper(II) pentacarboxylate tetrahydroxide bis(nitrate(V))
heptaaqua hydrate
;
_chemical_formula_structural '(Gd Cu4 (H C O O)5 (O H)4 (N O3)2 (H2 O)7) (H2 O)'
_chemical_formula_sum 'C5 H25 Cu4 Gd1 N2 O28'
_exptl_crystal_density_diffrn 2.43
_cell_measurement_temperature 293.
_publ_section_title

;
Synthesis, structures, and magnetic properties of three series of discrete or
1D compounds based on pyramidal [Ln Cu4] (Ln = Gd and Dy) cluster and formate
ligand
;
loop_
_citation_id
_citation_journal_full
_citation_year
_citation_journal_volume
_citation_page_first
_citation_page_last
_citation_journal_id_ASTM
primary 'Zeitschrift fuer Anorganische und Allgemeine Chemie (1950) (DE)' 2015
641 448 453 ZAACAB
loop_
_publ_author_name
'Li, Zhong-Yi'
'Zhang, Jian-Jun'
'Zhang, Fu-Qiang'
'Cao, Guang-Xiu'
'Zhai, Bin'
_cell_length_a 10.0479(19)
_cell_length_b 10.0479(19)
_cell_length_c 13.150(5)
_cell_angle_alpha 90.
_cell_angle_beta 90.
_cell_angle_gamma 90.
_cell_volume 1327.62
_cell_formula_units_Z 2
_symmetry_space_group_name_H-M 'P 4 n c'
_symmetry_Int_Tables_number 104
_refine_ls_R_factor_all 0.0262
loop_
_symmetry_equiv_pos_site_id
_symmetry_equiv_pos_as_xyz
1 'y+1/2, x+1/2, z+1/2'
2 '-y+1/2, -x+1/2, z+1/2'
3 '-x+1/2, y+1/2, z+1/2'
4 'x+1/2, -y+1/2, z+1/2'
5 'y, -x, z'
6 '-y, x, z'
7 '-x, -y, z'
8 'x, y, z'
loop_
_atom_type_symbol
_atom_type_oxidation_number
Gd3+ 3
Cu2+ 2
O2- -2
N5+ 5
C2+ 2
H1+ 1
C2+ 2
O2- -2
H1+ 1
loop_
_atom_site_label
_atom_site_type_symbol
_atom_site_symmetry_multiplicity
_atom_site_Wyckoff_symbol
_atom_site_fract_x
_atom_site_fract_y
_atom_site_fract_z
_atom_site_B_iso_or_equiv
_atom_site_occupancy
_atom_site_attached_hydrogens
Gd1 Gd3+ 2 a 0.5 0.5 1.10702(4) 0.02256(13) 1 0
Cu1 Cu2+ 8 c 0.39074(4) 0.31328(4) 0.89336(4) 0.02341(15) 1 0
O1 O2- 8 c 0.4690(4) 0.1757(4) 0.8064(3) 0.0408(9) 1 0
O2 O2- 8 c 0.6863(3) 0.2314(3) 0.8076(3) 0.0394(8) 1 0
O3 O2- 2 a 0.5 0.5 0.8037(6) 0.0322(17) 1 0
O4 O2- 8 c 0.3216(2) 0.4522(3) 0.9819(2) 0.0216(6) 1 0
O5 O2- 8 c 0.6097(4) 0.7017(4) 1.1666(3) 0.0482(11) 1 0
O6 O2- 8 c 0.3027(4) 0.1366(4) 1.0070(4) 0.0595(12) 1 0
O7 O2- 8 c 0.3351(12) -0.0778(9) 1.0203(13) 0.085(4) 0.5 0
O8 O2- 8 c 0.5001(8) 0.0528(11) 1.0424(12) 0.071(4) 0.5 0
O9 O2- 2 a 0.5 0.5 1.2899(8) 0.093(5) 1 0
O10 O2- 8 c 0.600(2) 0.549(3) 0.4758(18) 0.072(7) 0.25 0
N1 N5+ 8 c 0.3782(11) 0.0350(10) 1.0217(8) 0.049(2) 0.5 0
C1 C2+ 8 c 0.5887(5) 0.1600(6) 0.7839(5) 0.0419(12) 1 0
H1 H1+ 8 c 0.608 0.0856 0.7445 0.05 1 0
C2 C2+ 2 a 0.5 0.5 0.7052(10) 0.040(3) 1 0
O11 O2- 8 c 0.562(4) 0.446(4) 0.6520(15) 0.084(10) 0.25 0
loop_
_atom_site_aniso_label
_atom_site_aniso_type_symbol
_atom_site_aniso_U_11
_atom_site_aniso_U_22
_atom_site_aniso_U_33
_atom_site_aniso_U_12
_atom_site_aniso_U_13
_atom_site_aniso_U_23
Gd1 Gd3+ 0.02697(16) 0.02697(16) 0.01374(18) 0. 0. 0.
Cu1 Cu2+ 0.0221(2) 0.0226(2) 0.0256(2) -0.00030(16) -0.0024(2) -0.0071(2)
O1 O2- 0.0338(18) 0.040(2) 0.048(2) -0.0002(15) 0.0010(18) -0.0211(17)
O2 O2- 0.0369(18) 0.0348(18) 0.046(2) 0.0003(13) 0.0152(16) -0.0200(16)
O3 O2- 0.033(2) 0.033(2) 0.032(4) 0. 0. 0.
O4 O2- 0.0232(14) 0.0183(15) 0.0233(15) 0.0002(10) -0.0003(10) 0.0000(12)
O5 O2- 0.051(2) 0.048(2) 0.045(2) -0.0027(17) -0.0230(16) -0.0157(17)
O6 O2- 0.047(3) 0.039(2) 0.092(3) -0.0025(16) 0.012(2) 0.006(2)
O7 O2- 0.081(7) 0.019(4) 0.156(12) -0.001(3) 0.027(8) -0.023(6)
O8 O2- 0.070(8) 0.045(5) 0.099(10) 0.010(4) -0.017(5) 0.006(6)
O9 O2- 0.127(9) 0.127(9) 0.025(5) 0. 0. 0.
O10 O2- 0.059(12) 0.076(13) 0.082(14) 0.014(10) 0.032(11) 0.067(13)
N1 N5+ 0.068(7) 0.021(4) 0.057(6) 0.003(5) 0.017(5) 0.006(4)
C1 C2+ 0.040(3) 0.039(3) 0.047(3) -0.0006(19) 0.011(2) -0.022(2)
C2 C2+ 0.047(4) 0.047(4) 0.025(6) 0. 0. 0.
O11 O2- 0.13(3) 0.089(18) 0.037(9) 0.059(15) 0.016(14) 0.001(13)
#End of TTdata_238324-ICSD