
#(C) 2018 by FIZ Karlsruhe - Leibniz Institute for Information Infrastructure.  All rights reserved.
data_110101-ICSD
_database_code_ICSD 110101
_audit_creation_date 2008-02-01
_chemical_name_systematic 'Tetramethylammonium trithiocyanatodicuprate'
_chemical_formula_structural '((C H3)4 N) (Cu2 (C N S)3)'
_chemical_formula_sum 'C7 H12 Cu2 N4 S3'
_exptl_crystal_density_diffrn 1.88
_publ_section_title

;
[Me4 N] [Cu2 (N C S)3] - compound having a framework structure with large
channels
;
loop_
_citation_id
_citation_journal_full
_citation_year
_citation_journal_volume
_citation_page_first
_citation_page_last
_citation_journal_id_ASTM
primary 'Solid State Sciences' 2005 7 1230 1239 SSSCFJ
loop_
_publ_author_name
'Dilshad, R.'
'Boller, H.'
'Klepp, K.O.'
_cell_length_a 11.164(4)
_cell_length_b 11.164(4)
_cell_length_c 10.638(5)
_cell_angle_alpha 90
_cell_angle_beta 90
_cell_angle_gamma 90
_cell_volume 1325.87
_cell_formula_units_Z 4
_symmetry_space_group_name_H-M 'P 42 c m'
_symmetry_Int_Tables_number 101
loop_
_symmetry_equiv_pos_site_id
_symmetry_equiv_pos_as_xyz
1 'y, x, z'
2 '-y, -x, z'
3 '-x, y, z+1/2'
4 'x, -y, z+1/2'
5 'y, -x, z+1/2'
6 '-y, x, z+1/2'
7 '-x, -y, z'
8 'x, y, z'
loop_
_atom_type_symbol
_atom_type_oxidation_number
Cu1+ 1
S0+ 0
N3- -3
C2+ 2
C2- -2
H1+ 1
loop_
_atom_site_label
_atom_site_type_symbol
_atom_site_symmetry_multiplicity
_atom_site_Wyckoff_symbol
_atom_site_fract_x
_atom_site_fract_y
_atom_site_fract_z
_atom_site_B_iso_or_equiv
_atom_site_occupancy
_atom_site_attached_hydrogens
Cu1 Cu1+ 4 d 0.91399(3) 0.08601(3) 0.21482(6) 0.0483(2) 1. 0
Cu2 Cu1+ 4 d 0.58511(3) 0.41489(3) 0.05521(6) 0.0463(2) 1. 0
S1 S0+ 4 d 1.12252(7) 0.12252(7) 0.15749(11) 0.0398(2) 1. 0
S2 S0+ 4 d 0.62448(6) 0.62448(6) -0.00234(9) 0.0347(2) 1. 0
S3 S0+ 4 d 0.69474(6) 0.30526(6) -0.08893(10) 0.0488(2) 1. 0
N1 N3- 4 d 0.8907(2) 0.1093(2) 0.3934(4) 0.0437(8) 1. 0
N2 N3- 4 d 0.6088(2) 0.3912(2) 0.2347(3) 0.0407(7) 1. 0
N3 N3- 4 d 0.8234(2) 0.1766(2) 0.0902(4) 0.0597(10) 1. 0
N4 N3- 4 c 1. 0.5 0.2422(3) 0.0393(10) 1. 0
C1 C2+ 4 d 1.1133(2) 0.1133(2) 0.0015(4) 0.0347(7) 1. 0
C2 C2+ 4 d 0.6142(2) 0.6142(2) -0.1583(4) 0.0308(7) 1. 0
C3 C2+ 4 d 0.7715(2) 0.2285(2) 0.0165(4) 0.0371(7) 1. 0
C4 C2- 8 e 1.0434(4) 0.6012(3) 0.3209(4) 0.0650(12) 1. 0
C5 C2- 8 e 1.1005(3) 0.4577(4) 0.1612(4) 0.0647(12) 1. 0
H1 H1+ 8 e 1.1098(4) 0.5764(3) 0.3705(4) 0.078(2) 1. 0
H2 H1+ 8 e 1.0671(4) 0.6654(3) 0.2676(4) 0.078(2) 1. 0
H3 H1+ 8 e 0.9805(4) 0.6272(3) 0.3745(4) 0.078(2) 1. 0
H4 H1+ 8 e 1.0765(3) 0.3917(4) 0.1106(4) 0.078(2) 1. 0
H5 H1+ 8 e 1.1235(3) 0.5225(4) 0.1085(4) 0.078(2) 1. 0
H6 H1+ 8 e 1.1665(3) 0.4348(4) 0.2125(4) 0.078(2) 1. 0
loop_
_atom_site_aniso_label
_atom_site_aniso_type_symbol
_atom_site_aniso_U_11
_atom_site_aniso_U_22
_atom_site_aniso_U_33
_atom_site_aniso_U_12
_atom_site_aniso_U_13
_atom_site_aniso_U_23
Cu1 Cu1+ 0.0565(3) 0.0565(3) 0.0320(3) 0.0207(3) -0.0011(2) 0.0011(2)
Cu2 Cu1+ 0.0571(3) 0.0571(3) 0.0247(3) 0.0229(2) -0.0009(2) 0.0009(2)
S1 S0+ 0.0440(3) 0.0440(3) 0.0314(5) -0.0010(4) -0.0039(3) -0.0039(3)
S2 S0+ 0.0401(3) 0.0401(3) 0.0238(4) -0.0016(4) -0.0019(3) -0.0019(3)
S3 S0+ 0.0594(4) 0.0594(4) 0.0275(4) 0.0278(5) 0.0008(3) -0.0008(3)
N1 N3- 0.0480(13) 0.0480(13) 0.035(2) 0.0100(10) -0.0019(12) 0.0019(12)
N2 N3- 0.0485(12) 0.0485(12) 0.025(2) 0.0070(10) -0.0018(10) 0.0018(10)
N3 N3- 0.067(2) 0.067(2) 0.045(2) 0.032(2) -0.0077(12) 0.0077(12)
N4 N3- 0.039(2) 0.040(2) 0.039(2) -0.001(2) 0. 0.
C1 C2+ 0.0335(12) 0.0335(12) 0.037(2) -0.0050(10) -0.0010(12) -0.0010(12)
C2 C2+ 0.0297(11) 0.0297(11) 0.033(2) -0.0002(12) -0.0003(11) -0.0003(11)
C3 C2+ 0.0382(12) 0.0382(12) 0.035(2) 0.008(2) 0.0055(12) -0.0055(12)
C4 C2- 0.083(3) 0.056(2) 0.056(2) -0.013(2) -0.012(2) -0.007(2)
C5 C2- 0.060(2) 0.084(3) 0.050(2) 0.017(2) 0.010(2) 0.008(2)
#End of TTdata_110101-ICSD